Tried aggregator 2 times.
MIP Presolve eliminated 3 rows and 1 columns.
MIP Presolve modified 12 coefficients.
Aggregator did 12 substitutions.
Reduced MIP has 75 rows, 70 columns, and 195 nonzeros.
Reduced MIP has 39 binaries, 7 generals, 0 SOSs, and 0 indicators.
Presolve time = 0.00 sec. (0.16 ticks)
Found incumbent of value 6.000000 after 0.00 sec. (0.28 ticks)
Probing fixed 9 vars, tightened 18 bounds.
Probing time = 0.00 sec. (0.11 ticks)
Tried aggregator 2 times.
MIP Presolve eliminated 13 rows and 13 columns.
MIP Presolve modified 36 coefficients.
Aggregator did 26 substitutions.
Reduced MIP has 36 rows, 31 columns, and 129 nonzeros.
Reduced MIP has 21 binaries, 10 generals, 0 SOSs, and 0 indicators.
Presolve time = 0.00 sec. (0.15 ticks)
Probing time = 0.00 sec. (0.02 ticks)
Tried aggregator 1 time.
Reduced MIP has 36 rows, 31 columns, and 129 nonzeros.
Reduced MIP has 21 binaries, 10 generals, 0 SOSs, and 0 indicators.
Presolve time = 0.00 sec. (0.06 ticks)
Probing time = 0.00 sec. (0.02 ticks)
Clique table members: 12.
MIP emphasis: balance optimality and feasibility.
MIP search method: dynamic search.
Parallel mode: deterministic, using up to 4 threads.
Root relaxation solution time = 0.00 sec. (0.07 ticks)

        Nodes                                         Cuts/
   Node  Left     Objective  IInf  Best Integer    Best Bound    ItCnt     Gap

*     0+    0                            6.0000        1.0000       15   83.33%
*     0+    0                            2.0000        1.0000       15   50.00%
      0     0        1.0000    12        2.0000        1.0000       15   50.00%
*     0+    0                            1.0000        1.0000       36    0.00%
      0     0        cutoff              1.0000        1.0000       36    0.00%
Elapsed time = 0.01 sec. (0.95 ticks, tree = 0.00 MB, solutions = 3)

Root node processing (before b&c):
  Real time             =    0.01 sec. (0.95 ticks)
Parallel b&c, 4 threads:
  Real time             =    0.00 sec. (0.00 ticks)
  Sync time (average)   =    0.00 sec.
  Wait time (average)   =    0.00 sec.
                          ------------
Total (root+branch&cut) =    0.01 sec. (0.95 ticks)
